
n_res = 6;
rcap = [27, 30, 31, 28, 1364, 1445];
rtype = [1, 1, 1, 1, 2, 2];
n_tasks = 100;
modes =  [{1, 2, 3}, {4, 5, 6}, {7, 8, 9}, {10, 11, 12}, {13, 14, 15}, {16, 17, 18}, {19, 20, 21}, {22, 23, 24}, {25, 26, 27}, {28, 29, 30}, {31, 32, 33}, {34, 35, 36}, {37, 38, 39}, {40, 41, 42}, {43, 44, 45}, {46, 47, 48}, {49, 50, 51}, {52, 53, 54}, {55, 56, 57}, {58, 59, 60}, {61, 62, 63}, {64, 65, 66}, {67, 68, 69}, {70, 71, 72}, {73, 74, 75}, {76, 77, 78}, {79, 80, 81}, {82, 83, 84}, {85, 86, 87}, {88, 89, 90}, {91, 92, 93}, {94, 95, 96}, {97, 98, 99}, {100, 101, 102}, {103, 104, 105}, {106, 107, 108}, {109, 110, 111}, {112, 113, 114}, {115, 116, 117}, {118, 119, 120}, {121, 122, 123}, {124, 125, 126}, {127, 128, 129}, {130, 131, 132}, {133, 134, 135}, {136, 137, 138}, {139, 140, 141}, {142, 143, 144}, {145, 146, 147}, {148, 149, 150}, {151, 152, 153}, {154, 155, 156}, {157, 158, 159}, {160, 161, 162}, {163, 164, 165}, {166, 167, 168}, {169, 170, 171}, {172, 173, 174}, {175, 176, 177}, {178, 179, 180}, {181, 182, 183}, {184, 185, 186}, {187, 188, 189}, {190, 191, 192}, {193, 194, 195}, {196, 197, 198}, {199, 200, 201}, {202, 203, 204}, {205, 206, 207}, {208, 209, 210}, {211, 212, 213}, {214, 215, 216}, {217, 218, 219}, {220, 221, 222}, {223, 224, 225}, {226, 227, 228}, {229, 230, 231}, {232, 233, 234}, {235, 236, 237}, {238, 239, 240}, {241, 242, 243}, {244, 245, 246}, {247, 248, 249}, {250, 251, 252}, {253, 254, 255}, {256, 257, 258}, {259, 260, 261}, {262, 263, 264}, {265, 266, 267}, {268, 269, 270}, {271, 272, 273}, {274, 275, 276}, {277, 278, 279}, {280, 281, 282}, {283, 284, 285}, {286, 287, 288}, {289, 290, 291}, {292, 293, 294}, {295, 296, 297}, {298, 299, 300}];
succ =  [{50, 39, 38, 31, 30, 28, 27, 25, 23, 18, 10}, {52, 45, 35, 33, 28, 25, 14, 9}, {52, 50, 40, 38, 36, 33, 31, 28, 27, 16}, {56, 53, 50, 49, 47, 38, 35, 31, 29, 17}, {62, 54, 53, 50, 47, 45, 42, 38, 36, 33, 27, 20}, {62, 50, 45, 36, 33, 31, 21, 16}, {62, 55, 47, 46, 42, 40, 38, 33, 24, 20}, {62, 60, 56, 53, 52, 50, 49, 47, 42, 41, 40, 37, 36, 34, 31}, {60, 56, 55, 50, 49, 47, 42, 39, 38, 37, 31, 29, 24}, {61, 55, 54, 52, 45, 42, 40, 37, 33, 29, 21}, {62, 59, 56, 54, 52, 50, 49, 43, 36, 33, 25}, {62, 59, 52, 49, 42, 38, 32, 27, 25}, {60, 56, 55, 53, 52, 50, 46, 43, 42, 37, 24}, {67, 56, 49, 47, 42, 41, 37, 36, 34, 31}, {76, 62, 54, 53, 52, 51, 49, 47, 46, 44, 42, 27}, {67, 64, 60, 56, 55, 54, 49, 47, 43, 42, 25}, {62, 61, 54, 52, 45, 42, 41, 37, 36, 34, 33}, {62, 60, 59, 54, 53, 49, 47, 46, 44, 41, 40, 34}, {67, 47, 46, 45, 43, 42, 25}, {59, 56, 52, 49, 44, 41, 37, 35, 34}, {56, 49, 47, 46, 44, 43, 41, 34}, {62, 58, 56, 55, 48, 44, 41, 35}, {64, 62, 61, 55, 49, 37, 29}, {84, 81, 79, 69, 67, 64, 61, 54, 41, 34}, {61, 44, 41, 37, 34}, {84, 81, 79, 69, 56, 41, 34}, {74, 72, 70, 68, 66, 65, 64, 60, 55, 43, 37}, {84, 81, 76, 75, 74, 69, 65, 62, 60, 54, 49, 48, 47}, {100, 81, 76, 72, 70, 69, 68, 58, 51, 48, 43}, {100, 80, 75, 74, 71, 66, 65, 60, 57, 53, 52, 47}, {76, 70, 65, 61, 59, 54, 46, 44}, {100, 84, 80, 76, 69, 68, 66, 64, 60, 57, 56, 51}, {99, 98, 84, 72, 70, 68, 60, 58, 44}, {100, 75, 72, 70, 66, 58, 51, 48}, {84, 76, 75, 74, 73, 71, 70, 67, 66, 63, 61, 60, 57}, {100, 84, 74, 71, 68, 66, 64, 55, 48}, {100, 97, 84, 81, 58, 48}, {100, 98, 94, 81, 80, 74, 73, 71, 68, 66, 63, 57}, {100, 98, 96, 95, 94, 91, 83, 81, 78, 76, 74, 73, 71, 69, 66}, {100, 97, 96, 94, 84, 79, 78, 65, 58}, {100, 99, 97, 96, 94, 78, 77, 76, 74, 73, 72, 68, 65}, {99, 98, 97, 95, 94, 81, 74, 73, 72, 71, 57}, {99, 98, 97, 95, 84, 83, 82, 80, 79, 75, 73, 71, 63}, {100, 97, 95, 82, 81, 79, 74, 73, 71, 69, 57}, {100, 98, 97, 95, 94, 91, 84, 83, 79, 73, 72, 71, 70}, {100, 97, 95, 94, 84, 82, 79, 78, 68, 64}, {99, 97, 95, 94, 79, 73, 72, 70, 63}, {99, 98, 95, 94, 82, 73, 63, 57}, {100, 99, 97, 96, 95, 94, 93, 92, 91, 90, 82, 78, 73, 71}, {96, 95, 94, 91, 79, 78, 74, 71, 70, 68}, {99, 96, 83, 78, 77, 74, 65}, {96, 95, 92, 91, 88, 83, 69, 67}, {98, 96, 94, 93, 92, 91, 90, 86, 84, 82, 78, 73}, {99, 97, 94, 92, 83, 80, 78, 73, 71}, {94, 93, 91, 90, 82, 79, 78, 77, 75}, {97, 94, 93, 92, 91, 90, 83, 82, 73}, {96, 93, 92, 91, 90, 87, 83, 78, 77}, {93, 91, 83, 80, 73, 71}, {100, 99, 97, 93, 91, 89, 88, 83, 82, 77}, {95, 94, 91, 89, 88, 82, 79, 77}, {96, 95, 94, 92, 91, 90, 88, 82, 77}, {97, 91, 90, 87, 82, 78, 77}, {96, 92, 91, 90, 87, 86, 85, 78}, {93, 92, 91, 77, 73}, {98, 95, 91, 89, 88, 87, 82}, {99, 97, 89, 88, 87, 86, 82}, {98, 89, 87, 82, 77}, {90, 89, 88, 87, 86, 85}, {93, 90, 89, 87, 86}, {93, 87, 86, 82}, {89, 88, 77}, {93, 87, 82}, {89, 88, 87}, {92, 90, 86}, {87, 86, 85}, {90, 88, 85}, {86, 85}, {89, 88}, {92, 87}, {90, 85}, {86, 85}, {85}, {86}, {85}, {}, {}, {}, {}, {}, {}, {}, {}, {}, {}, {}, {}, {}, {}, {}, {}];
n_opt = 300;
dur = [21, 23, 29, 12, 23, 24, 9, 14, 30, 10, 16, 22, 4, 8, 19, 2, 3, 12, 10, 17, 22, 1, 11, 17, 3, 13, 27, 11, 18, 26, 2, 25, 27, 6, 8, 10, 22, 28, 29, 7, 8, 18, 7, 11, 12, 5, 6, 19, 7, 12, 13, 7, 22, 29, 13, 15, 30, 10, 28, 30, 18, 19, 25, 2, 3, 13, 9, 19, 26, 4, 8, 26, 2, 9, 13, 17, 25, 28, 4, 8, 30, 15, 16, 17, 5, 19, 20, 11, 15, 26, 1, 14, 20, 1, 2, 25, 12, 19, 30, 6, 16, 27, 1, 24, 27, 3, 11, 23, 5, 12, 28, 1, 18, 19, 2, 19, 29, 2, 3, 23, 7, 14, 15, 10, 15, 25, 12, 14, 29, 1, 9, 26, 15, 21, 24, 15, 18, 28, 4, 12, 26, 4, 26, 28, 5, 8, 25, 2, 9, 20, 4, 9, 14, 5, 15, 19, 17, 23, 28, 17, 18, 23, 12, 19, 29, 5, 12, 22, 2, 9, 15, 4, 5, 12, 2, 3, 20, 3, 7, 10, 13, 14, 17, 16, 17, 20, 2, 13, 24, 8, 11, 13, 8, 26, 27, 15, 16, 24, 12, 29, 30, 1, 9, 18, 12, 16, 24, 3, 21, 26, 1, 27, 28, 8, 9, 22, 4, 11, 27, 3, 13, 29, 17, 19, 25, 5, 6, 16, 2, 24, 26, 9, 10, 21, 5, 23, 25, 11, 19, 26, 17, 24, 25, 16, 17, 29, 1, 4, 12, 7, 10, 14, 4, 23, 27, 4, 20, 23, 5, 26, 27, 3, 8, 13, 14, 25, 26, 4, 18, 19, 1, 8, 21, 5, 6, 17, 6, 7, 25, 5, 9, 27, 3, 16, 24, 24, 25, 26, 4, 10, 23, 7, 18, 28, 5, 8, 14, 8, 10, 23];
rreq = [|3, 3, 3, 2, 1, 1, 4, 4, 4, 3, 3, 1, 4, 4, 4, 3, 1, 1, 2, 1, 1, 1, 1, 1, 4, 4, 3, 4, 4, 3, 1, 1, 1, 4, 3, 3, 5, 3, 3, 2, 2, 1, 5, 4, 4, 1, 1, 1, 5, 3, 3, 2, 1, 1, 3, 3, 3, 3, 3, 3, 3, 3, 3, 4, 4, 4, 4, 2, 2, 5, 3, 3, 2, 2, 2, 3, 1, 1, 5, 3, 3, 3, 3, 1, 3, 1, 1, 5, 5, 5, 3, 3, 2, 3, 3, 2, 4, 4, 2, 5, 4, 3, 5, 5, 5, 3, 3, 3, 4, 4, 4, 4, 4, 4, 5, 3, 2, 3, 2, 2, 2, 2, 2, 2, 1, 1, 5, 4, 2, 3, 3, 2, 2, 2, 2, 3, 2, 2, 4, 4, 4, 2, 1, 1, 4, 4, 4, 2, 2, 2, 5, 4, 4, 4, 3, 3, 4, 3, 3, 3, 2, 1, 1, 1, 1, 3, 2, 2, 5, 3, 1, 3, 2, 2, 4, 3, 2, 5, 3, 3, 4, 3, 2, 5, 4, 4, 5, 3, 2, 5, 4, 2, 4, 3, 3, 4, 4, 3, 4, 2, 2, 5, 3, 3, 3, 3, 3, 5, 4, 3, 1, 1, 1, 4, 3, 3, 2, 2, 2, 3, 2, 2, 4, 2, 2, 1, 1, 1, 2, 1, 1, 5, 3, 2, 2, 2, 2, 3, 3, 3, 4, 4, 4, 4, 3, 3, 4, 4, 4, 4, 4, 4, 2, 2, 2, 4, 2, 2, 4, 4, 4, 3, 1, 1, 5, 4, 3, 3, 3, 2, 5, 4, 4, 5, 4, 4, 1, 1, 1, 1, 1, 1, 4, 4, 3, 3, 1, 1, 3, 1, 1, 1, 1, 1, 4, 4, 4, 5, 4, 4
 |4, 3, 2, 2, 1, 1, 5, 4, 2, 5, 3, 3, 4, 4, 4, 3, 3, 2, 5, 2, 2, 4, 3, 3, 4, 2, 1, 2, 1, 1, 5, 4, 4, 3, 3, 3, 1, 1, 1, 2, 1, 1, 5, 5, 5, 4, 3, 2, 4, 3, 3, 4, 4, 4, 4, 2, 2, 4, 3, 2, 5, 3, 3, 3, 1, 1, 1, 1, 1, 1, 1, 1, 4, 2, 1, 2, 2, 2, 4, 2, 1, 3, 2, 2, 5, 5, 5, 2, 2, 2, 2, 2, 2, 5, 4, 4, 4, 2, 2, 2, 1, 1, 2, 2, 2, 4, 3, 2, 3, 2, 2, 4, 3, 3, 3, 3, 2, 3, 2, 1, 1, 1, 1, 4, 3, 3, 5, 5, 5, 3, 3, 3, 1, 1, 1, 4, 3, 3, 5, 5, 5, 2, 2, 2, 3, 2, 1, 2, 2, 2, 3, 3, 3, 3, 2, 1, 3, 2, 1, 2, 1, 1, 4, 4, 4, 2, 2, 1, 2, 2, 2, 4, 3, 1, 4, 2, 2, 3, 2, 2, 1, 1, 1, 1, 1, 1, 4, 4, 4, 3, 1, 1, 4, 2, 1, 3, 2, 1, 4, 2, 1, 5, 4, 3, 2, 1, 1, 4, 4, 3, 3, 3, 1, 5, 4, 3, 3, 3, 3, 4, 4, 4, 4, 3, 2, 4, 3, 2, 3, 2, 2, 2, 2, 2, 3, 3, 3, 5, 4, 3, 4, 2, 2, 3, 2, 2, 4, 4, 2, 2, 2, 2, 5, 4, 4, 3, 3, 3, 5, 4, 3, 3, 2, 1, 4, 2, 1, 3, 1, 1, 3, 2, 1, 4, 4, 4, 3, 3, 3, 5, 4, 3, 4, 2, 1, 5, 3, 3, 5, 4, 3, 5, 4, 4, 5, 5, 5, 3, 3, 2
 |5, 3, 3, 5, 5, 5, 3, 1, 1, 5, 4, 4, 4, 3, 3, 4, 3, 3, 4, 4, 3, 1, 1, 1, 5, 3, 3, 4, 4, 2, 4, 4, 4, 3, 1, 1, 4, 4, 4, 5, 5, 5, 4, 4, 3, 1, 1, 1, 3, 1, 1, 3, 3, 2, 5, 3, 3, 4, 3, 2, 3, 3, 3, 4, 4, 4, 4, 4, 4, 5, 4, 4, 4, 3, 3, 3, 2, 1, 1, 1, 1, 5, 3, 3, 3, 3, 2, 2, 2, 2, 1, 1, 1, 3, 2, 1, 5, 3, 3, 5, 4, 4, 2, 2, 2, 2, 2, 2, 2, 2, 1, 4, 4, 4, 1, 1, 1, 4, 2, 2, 5, 5, 5, 4, 2, 2, 1, 1, 1, 3, 3, 3, 5, 5, 5, 5, 5, 5, 4, 2, 2, 4, 2, 1, 1, 1, 1, 3, 2, 1, 4, 2, 2, 3, 3, 3, 5, 3, 2, 1, 1, 1, 4, 3, 3, 5, 3, 2, 2, 1, 1, 4, 3, 3, 5, 5, 5, 3, 3, 3, 3, 2, 1, 3, 3, 1, 1, 1, 1, 1, 1, 1, 3, 3, 3, 2, 1, 1, 2, 2, 2, 5, 5, 5, 3, 2, 2, 2, 2, 2, 4, 4, 4, 4, 2, 2, 4, 2, 2, 2, 2, 2, 5, 4, 4, 5, 2, 1, 3, 1, 1, 3, 3, 3, 5, 2, 2, 4, 2, 2, 2, 1, 1, 5, 5, 5, 2, 2, 2, 2, 2, 2, 2, 2, 1, 4, 2, 2, 5, 4, 4, 4, 4, 4, 4, 3, 3, 3, 2, 2, 5, 4, 3, 4, 2, 2, 2, 1, 1, 2, 2, 2, 2, 1, 1, 4, 3, 1, 3, 3, 2, 3, 3, 1, 2, 1, 1, 3, 2, 2
 |4, 4, 4, 3, 3, 3, 2, 2, 2, 5, 4, 2, 4, 2, 1, 2, 1, 1, 1, 1, 1, 4, 4, 4, 4, 2, 2, 4, 2, 2, 2, 2, 2, 5, 5, 5, 5, 3, 2, 3, 2, 2, 5, 3, 3, 4, 4, 2, 2, 2, 2, 4, 3, 2, 4, 4, 4, 4, 4, 4, 4, 2, 1, 4, 2, 2, 5, 5, 5, 2, 1, 1, 1, 1, 1, 2, 1, 1, 3, 3, 3, 2, 2, 2, 3, 2, 2, 3, 2, 1, 4, 3, 3, 2, 2, 2, 4, 3, 3, 4, 3, 3, 4, 3, 3, 4, 4, 4, 1, 1, 1, 3, 3, 1, 2, 2, 2, 1, 1, 1, 5, 3, 3, 1, 1, 1, 4, 3, 2, 3, 1, 1, 3, 2, 1, 3, 3, 1, 4, 4, 4, 3, 1, 1, 4, 3, 2, 4, 3, 3, 4, 3, 1, 3, 2, 1, 5, 5, 5, 3, 2, 1, 4, 4, 4, 4, 2, 2, 4, 4, 4, 3, 3, 3, 4, 3, 3, 4, 3, 1, 5, 3, 2, 3, 3, 3, 4, 3, 1, 2, 2, 2, 4, 2, 2, 4, 4, 3, 3, 2, 1, 1, 1, 1, 4, 4, 4, 4, 2, 2, 3, 3, 3, 3, 2, 1, 4, 2, 1, 3, 3, 3, 3, 3, 2, 5, 3, 1, 2, 2, 2, 2, 2, 1, 5, 2, 1, 4, 3, 2, 3, 3, 1, 3, 2, 2, 2, 2, 2, 4, 4, 3, 4, 3, 2, 2, 2, 2, 3, 3, 3, 4, 2, 2, 2, 2, 2, 3, 2, 1, 4, 4, 3, 3, 3, 3, 1, 1, 1, 3, 3, 2, 4, 4, 4, 4, 3, 2, 2, 1, 1, 2, 1, 1, 5, 4, 3, 4, 3, 2
 |14, 11, 9, 19, 16, 16, 18, 13, 9, 24, 20, 20, 6, 5, 4, 15, 11, 11, 14, 14, 13, 26, 12, 3, 27, 24, 23, 17, 15, 14, 22, 13, 10, 26, 23, 19, 20, 20, 20, 26, 18, 15, 23, 18, 11, 9, 7, 6, 21, 17, 11, 26, 23, 23, 26, 23, 18, 20, 19, 15, 16, 7, 2, 14, 14, 14, 15, 15, 15, 11, 9, 8, 23, 23, 23, 8, 7, 5, 13, 8, 8, 26, 18, 10, 11, 9, 5, 15, 7, 4, 21, 21, 21, 2, 2, 2, 23, 22, 19, 28, 25, 18, 18, 16, 14, 18, 14, 9, 30, 28, 26, 13, 12, 12, 3, 3, 1, 24, 16, 9, 19, 19, 8, 26, 24, 23, 7, 7, 1, 6, 4, 4, 25, 14, 8, 25, 24, 24, 23, 23, 22, 18, 17, 16, 14, 12, 12, 6, 5, 4, 17, 17, 14, 23, 19, 13, 24, 20, 18, 11, 9, 6, 24, 23, 19, 5, 4, 4, 27, 23, 23, 13, 12, 12, 21, 18, 7, 23, 23, 21, 22, 22, 22, 1, 1, 1, 23, 10, 2, 27, 20, 9, 15, 14, 14, 14, 8, 5, 7, 7, 4, 21, 18, 13, 18, 17, 15, 15, 11, 10, 13, 8, 6, 27, 16, 12, 25, 19, 17, 19, 19, 19, 21, 21, 15, 12, 12, 12, 23, 19, 18, 15, 12, 10, 17, 16, 16, 11, 10, 4, 21, 10, 8, 20, 16, 14, 18, 17, 17, 13, 12, 10, 19, 13, 5, 24, 20, 13, 25, 24, 22, 12, 11, 11, 28, 23, 19, 22, 22, 22, 24, 18, 12, 7, 6, 6, 15, 15, 14, 14, 11, 5, 21, 21, 21, 9, 6, 4, 19, 14, 5, 16, 8, 1, 25, 20, 15, 19, 16, 15
 |20, 18, 16, 27, 27, 26, 23, 14, 11, 22, 20, 15, 28, 25, 23, 23, 23, 17, 25, 10, 1, 20, 18, 17, 8, 4, 4, 13, 11, 3, 15, 8, 4, 24, 23, 22, 9, 5, 3, 24, 15, 6, 25, 25, 23, 27, 22, 14, 21, 11, 1, 21, 21, 20, 15, 15, 14, 18, 17, 17, 25, 18, 5, 10, 10, 9, 14, 9, 4, 19, 17, 4, 25, 16, 9, 18, 18, 8, 27, 25, 24, 15, 14, 13, 3, 3, 3, 25, 25, 24, 10, 9, 6, 16, 8, 6, 24, 14, 12, 28, 24, 23, 16, 11, 4, 14, 12, 2, 29, 25, 18, 18, 14, 9, 10, 10, 9, 21, 15, 10, 23, 22, 17, 12, 6, 1, 8, 7, 4, 6, 6, 5, 24, 24, 24, 28, 27, 26, 12, 11, 9, 8, 5, 3, 23, 22, 21, 22, 19, 6, 17, 14, 12, 15, 10, 4, 21, 19, 14, 27, 25, 21, 23, 22, 20, 24, 15, 13, 13, 11, 7, 19, 11, 8, 22, 22, 21, 25, 19, 8, 28, 15, 11, 21, 17, 11, 29, 28, 28, 21, 18, 15, 20, 19, 17, 26, 23, 20, 21, 20, 18, 16, 16, 9, 22, 22, 20, 27, 24, 17, 26, 21, 16, 11, 10, 9, 27, 27, 27, 11, 5, 1, 21, 17, 8, 7, 7, 7, 28, 20, 20, 27, 25, 23, 30, 25, 20, 21, 15, 13, 18, 15, 15, 16, 7, 4, 21, 20, 19, 24, 24, 16, 3, 2, 2, 13, 13, 10, 4, 4, 4, 23, 21, 21, 17, 16, 14, 25, 23, 21, 12, 10, 9, 25, 20, 19, 9, 8, 8, 24, 22, 21, 25, 24, 24, 17, 17, 16, 28, 28, 26, 12, 8, 5, 7, 5, 5, 18, 15, 10|];